For VASP. System= Ta
3.319
1 0.0000000000000000 0.0000000000000000
0.0000000000000000 1 0.0000000000000000
0.0000000000000000 0.0000000000000000 1
Ta
2 
Direct
0.0000000000000000 0.0000000000000000 0.0000000000000000
0.5000000000000000 0.5000000000000000 0.5000000000000000